10	6	3.95
2 5 2 8 3 7 4 2 5 4 6 6 2 2 3 6 4
2 4 1 6 3 1 5 9 6 6 6 1 7 2 4 3 7 4 4 5 9 6 5
2 2 1 4 2 1 4 1 7 2 7 4 1 5 1
2 4 1 6 2 8 4 5 6 3 5 1 8 2 1 3 6 5 4 6 5
2 3 1 7 2 1 3 5 6 1 5 2 9 3 6 4 3 5 7 6 3
2 6 1 8 2 7 3 4 4 4 5 2 6 1 3 2 3 3 6 4 8
2 1 1 4 6 1 3 2 3 3 4 4 1 5 5 6 9
2 2 3 5 5 7 3 2 4 3 9 4 1
2 1 3 5 6 1 1 2 2 3 9 4 7 5 4 6 8
2 4 1 8 3 4 4 4 5 4 6 1 3 2 6 3 6 4 2 5 7 6 8
